p tdp 58 111
6 11
27 53
41 47
6 27
48 49
5 51
15 37
15 29
10 24
17 35
26 45
12 57
14 19
19 23
7 28
22 36
15 56
1 2
22 46
20 24
28 34
10 45
10 16
8 20
3 38
33 39
39 52
25 32
54 55
36 44
12 13
11 23
47 57
30 47
40 58
38 48
2 31
4 50
31 51
10 43
15 57
18 36
17 36
23 42
21 40
5 50
25 55
1 48
34 44
11 21
31 56
9 54
22 57
15 40
9 24
42 55
39 48
4 6
42 52
4 18
9 16
26 34
25 44
27 48
1 45
10 46
9 40
19 25
5 21
7 21
1 13
29 34
17 23
12 45
24 29
8 43
27 30
25 50
14 24
3 24
17 58
1 28
10 27
4 10
2 8
9 35
10 54
10 28
1 21
3 45
3 40
11 25
28 41
16 28
47 58
18 56
18 23
15 30
3 12
29 43
44 56
23 27
11 34
19 38
9 53
1 10
3 54
34 52
7 23
15 41
2 39
